\Problem name: compact

Minimize
OBJROW: C
Subject To
ord(0,1):  x(0,0) - x(0,1) >= 3
ord(0,2):  - x(0,0) + x(0,3) >= 8
ord(0,3):  x(0,2) - x(0,3) >= 6
ord(1,1):  - x(1,0) + x(1,2) >= 5
ord(1,2):  - x(1,2) + x(1,3) >= 2
ord(1,3):  x(1,1) - x(1,3) >= 9
ord(2,1):  - x(2,1) + x(2,3) >= 10
ord(2,2):  x(2,2) - x(2,3) >= 10
ord(2,3):  x(2,0) - x(2,2) >= 5
triangle2(0,1,0):  y(0,1,0) + y(1,0,0) = 1
triangle2(0,1,1):  y(0,1,1) + y(1,0,1) = 1
triangle2(0,1,2):  y(0,1,2) + y(1,0,2) = 1
triangle2(0,1,3):  y(0,1,3) + y(1,0,3) = 1
triangle2(0,2,0):  y(0,2,0) + y(2,0,0) = 1
triangle2(0,2,1):  y(0,2,1) + y(2,0,1) = 1
triangle2(0,2,2):  y(0,2,2) + y(2,0,2) = 1
triangle2(0,2,3):  y(0,2,3) + y(2,0,3) = 1
triangle2(1,2,0):  y(1,2,0) + y(2,1,0) = 1
triangle2(1,2,1):  y(1,2,1) + y(2,1,1) = 1
triangle2(1,2,2):  y(1,2,2) + y(2,1,2) = 1
triangle2(1,2,3):  y(1,2,3) + y(2,1,3) = 1
MCLinV(0,1,0):  x(0,0) - v(0,1,0) - x(1,0) = 5
MCLinV(1,0,0):  - x(0,0) - v(1,0,0) + x(1,0) = 8
MCLin1(0,1,0):  u(0,1,0) >= -0
MCLin2(0,1,0):  -50 y(1,0,0) - u(0,1,0) <= -0
MCLin3(0,1,0):  44 y(1,0,0) + v(0,1,0) - u(0,1,0) <= 44
MCLin4(0,1,0):  44 y(1,0,0) - u(0,1,0) >= -0
MCLin5(0,1,0):  -50 y(1,0,0) + v(0,1,0) - u(0,1,0) >= -50
MCLin6(1,0,0):  u(1,0,0) >= -0
MCLin7(1,0,0):  -57 y(0,1,0) - u(1,0,0) <= -0
MCLin8(1,0,0):  37 y(0,1,0) + v(1,0,0) - u(1,0,0) <= 37
MCLin9(1,0,0):  37 y(0,1,0) - u(1,0,0) >= -0
MCLin10(1,0,0):  -57 y(0,1,0) + v(1,0,0) - u(1,0,0) >= -57
MCLinV(0,1,1):  x(0,1) - v(0,1,1) - x(1,1) = 3
MCLinV(1,0,1):  - x(0,1) - v(1,0,1) + x(1,1) = 3
MCLin1(0,1,1):  u(0,1,1) >= -0
MCLin2(0,1,1):  -67 y(1,0,1) - u(0,1,1) <= -0
MCLin3(0,1,1):  27 y(1,0,1) + v(0,1,1) - u(0,1,1) <= 27
MCLin4(0,1,1):  27 y(1,0,1) - u(0,1,1) >= -0
MCLin5(0,1,1):  -67 y(1,0,1) + v(0,1,1) - u(0,1,1) >= -67
MCLin6(1,0,1):  u(1,0,1) >= -0
MCLin7(1,0,1):  -33 y(0,1,1) - u(1,0,1) <= -0
MCLin8(1,0,1):  61 y(0,1,1) + v(1,0,1) - u(1,0,1) <= 61
MCLin9(1,0,1):  61 y(0,1,1) - u(1,0,1) >= -0
MCLin10(1,0,1):  -33 y(0,1,1) + v(1,0,1) - u(1,0,1) >= -33
MCLinV(0,1,2):  x(0,2) - v(0,1,2) - x(1,2) = 2
MCLinV(1,0,2):  - x(0,2) - v(1,0,2) + x(1,2) = 4
MCLin1(0,1,2):  u(0,1,2) >= -0
MCLin2(0,1,2):  -38 y(1,0,2) - u(0,1,2) <= -0
MCLin3(0,1,2):  56 y(1,0,2) + v(0,1,2) - u(0,1,2) <= 56
MCLin4(0,1,2):  56 y(1,0,2) - u(0,1,2) >= -0
MCLin5(0,1,2):  -38 y(1,0,2) + v(0,1,2) - u(0,1,2) >= -38
MCLin6(1,0,2):  u(1,0,2) >= -0
MCLin7(1,0,2):  -62 y(0,1,2) - u(1,0,2) <= -0
MCLin8(1,0,2):  32 y(0,1,2) + v(1,0,2) - u(1,0,2) <= 32
MCLin9(1,0,2):  32 y(0,1,2) - u(1,0,2) >= -0
MCLin10(1,0,2):  -62 y(0,1,2) + v(1,0,2) - u(1,0,2) >= -62
MCLinV(0,1,3):  x(0,3) - v(0,1,3) - x(1,3) = 9
MCLinV(1,0,3):  - x(0,3) - v(1,0,3) + x(1,3) = 6
MCLin1(0,1,3):  u(0,1,3) >= -0
MCLin2(0,1,3):  -53 y(1,0,3) - u(0,1,3) <= -0
MCLin3(0,1,3):  41 y(1,0,3) + v(0,1,3) - u(0,1,3) <= 41
MCLin4(0,1,3):  41 y(1,0,3) - u(0,1,3) >= -0
MCLin5(0,1,3):  -53 y(1,0,3) + v(0,1,3) - u(0,1,3) >= -53
MCLin6(1,0,3):  u(1,0,3) >= -0
MCLin7(1,0,3):  -56 y(0,1,3) - u(1,0,3) <= -0
MCLin8(1,0,3):  38 y(0,1,3) + v(1,0,3) - u(1,0,3) <= 38
MCLin9(1,0,3):  38 y(0,1,3) - u(1,0,3) >= -0
MCLin10(1,0,3):  -56 y(0,1,3) + v(1,0,3) - u(1,0,3) >= -56
MCLinV(0,2,0):  x(0,0) - v(0,2,0) - x(2,0) = 2
MCLinV(2,0,0):  - x(0,0) - v(2,0,0) + x(2,0) = 8
MCLin1(0,2,0):  u(0,2,0) >= -0
MCLin2(0,2,0):  -64 y(2,0,0) - u(0,2,0) <= -0
MCLin3(0,2,0):  22 y(2,0,0) + v(0,2,0) - u(0,2,0) <= 22
MCLin4(0,2,0):  22 y(2,0,0) - u(0,2,0) >= -0
MCLin5(0,2,0):  -64 y(2,0,0) + v(0,2,0) - u(0,2,0) >= -64
MCLin6(2,0,0):  u(2,0,0) >= -0
MCLin7(2,0,0):  -32 y(0,2,0) - u(2,0,0) <= -0
MCLin8(2,0,0):  54 y(0,2,0) + v(2,0,0) - u(2,0,0) <= 54
MCLin9(2,0,0):  54 y(0,2,0) - u(2,0,0) >= -0
MCLin10(2,0,0):  -32 y(0,2,0) + v(2,0,0) - u(2,0,0) >= -32
MCLinV(0,2,1):  x(0,1) - v(0,2,1) - x(2,1) = 10
MCLinV(2,0,1):  - x(0,1) - v(2,0,1) + x(2,1) = 3
MCLin1(0,2,1):  u(0,2,1) >= -0
MCLin2(0,2,1):  -50 y(2,0,1) - u(0,2,1) <= -0
MCLin3(0,2,1):  36 y(2,0,1) + v(0,2,1) - u(0,2,1) <= 36
MCLin4(0,2,1):  36 y(2,0,1) - u(0,2,1) >= -0
MCLin5(0,2,1):  -50 y(2,0,1) + v(0,2,1) - u(0,2,1) >= -50
MCLin6(2,0,1):  u(2,0,1) >= -0
MCLin7(2,0,1):  -49 y(0,2,1) - u(2,0,1) <= -0
MCLin8(2,0,1):  37 y(0,2,1) + v(2,0,1) - u(2,0,1) <= 37
MCLin9(2,0,1):  37 y(0,2,1) - u(2,0,1) >= -0
MCLin10(2,0,1):  -49 y(0,2,1) + v(2,0,1) - u(2,0,1) >= -49
MCLinV(0,2,2):  x(0,2) - v(0,2,2) - x(2,2) = 5
MCLinV(2,0,2):  - x(0,2) - v(2,0,2) + x(2,2) = 4
MCLin1(0,2,2):  u(0,2,2) >= -0
MCLin2(0,2,2):  -48 y(2,0,2) - u(0,2,2) <= -0
MCLin3(0,2,2):  38 y(2,0,2) + v(0,2,2) - u(0,2,2) <= 38
MCLin4(0,2,2):  38 y(2,0,2) - u(0,2,2) >= -0
MCLin5(0,2,2):  -48 y(2,0,2) + v(0,2,2) - u(0,2,2) >= -48
MCLin6(2,0,2):  u(2,0,2) >= -0
MCLin7(2,0,2):  -47 y(0,2,2) - u(2,0,2) <= -0
MCLin8(2,0,2):  39 y(0,2,2) + v(2,0,2) - u(2,0,2) <= 39
MCLin9(2,0,2):  39 y(0,2,2) - u(2,0,2) >= -0
MCLin10(2,0,2):  -47 y(0,2,2) + v(2,0,2) - u(2,0,2) >= -47
MCLinV(0,2,3):  x(0,3) - v(0,2,3) - x(2,3) = 10
MCLinV(2,0,3):  - x(0,3) - v(2,0,3) + x(2,3) = 6
MCLin1(0,2,3):  u(0,2,3) >= -0
MCLin2(0,2,3):  -49 y(2,0,3) - u(0,2,3) <= -0
MCLin3(0,2,3):  37 y(2,0,3) + v(0,2,3) - u(0,2,3) <= 37
MCLin4(0,2,3):  37 y(2,0,3) - u(0,2,3) >= -0
MCLin5(0,2,3):  -49 y(2,0,3) + v(0,2,3) - u(0,2,3) >= -49
MCLin6(2,0,3):  u(2,0,3) >= -0
MCLin7(2,0,3):  -53 y(0,2,3) - u(2,0,3) <= -0
MCLin8(2,0,3):  33 y(0,2,3) + v(2,0,3) - u(2,0,3) <= 33
MCLin9(2,0,3):  33 y(0,2,3) - u(2,0,3) >= -0
MCLin10(2,0,3):  -53 y(0,2,3) + v(2,0,3) - u(2,0,3) >= -53
MCLinV(1,2,0):  x(1,0) - v(1,2,0) - x(2,0) = 2
MCLinV(2,1,0):  - x(1,0) - v(2,1,0) + x(2,0) = 5
MCLin1(1,2,0):  u(1,2,0) >= -0
MCLin2(1,2,0):  -67 y(2,1,0) - u(1,2,0) <= -0
MCLin3(1,2,0):  21 y(2,1,0) + v(1,2,0) - u(1,2,0) <= 21
MCLin4(1,2,0):  21 y(2,1,0) - u(1,2,0) >= -0
MCLin5(1,2,0):  -67 y(2,1,0) + v(1,2,0) - u(1,2,0) >= -67
MCLin6(2,1,0):  u(2,1,0) >= -0
MCLin7(2,1,0):  -28 y(1,2,0) - u(2,1,0) <= -0
MCLin8(2,1,0):  60 y(1,2,0) + v(2,1,0) - u(2,1,0) <= 60
MCLin9(2,1,0):  60 y(1,2,0) - u(2,1,0) >= -0
MCLin10(2,1,0):  -28 y(1,2,0) + v(2,1,0) - u(2,1,0) >= -28
MCLinV(1,2,1):  x(1,1) - v(1,2,1) - x(2,1) = 10
MCLinV(2,1,1):  - x(1,1) - v(2,1,1) + x(2,1) = 3
MCLin1(1,2,1):  u(1,2,1) >= -0
MCLin2(1,2,1):  -34 y(2,1,1) - u(1,2,1) <= -0
MCLin3(1,2,1):  54 y(2,1,1) + v(1,2,1) - u(1,2,1) <= 54
MCLin4(1,2,1):  54 y(2,1,1) - u(1,2,1) >= -0
MCLin5(1,2,1):  -34 y(2,1,1) + v(1,2,1) - u(1,2,1) >= -34
MCLin6(2,1,1):  u(2,1,1) >= -0
MCLin7(2,1,1):  -67 y(1,2,1) - u(2,1,1) <= -0
MCLin8(2,1,1):  21 y(1,2,1) + v(2,1,1) - u(2,1,1) <= 21
MCLin9(2,1,1):  21 y(1,2,1) - u(2,1,1) >= -0
MCLin10(2,1,1):  -67 y(1,2,1) + v(2,1,1) - u(2,1,1) >= -67
MCLinV(1,2,2):  x(1,2) - v(1,2,2) - x(2,2) = 5
MCLinV(2,1,2):  - x(1,2) - v(2,1,2) + x(2,2) = 2
MCLin1(1,2,2):  u(1,2,2) >= -0
MCLin2(1,2,2):  -60 y(2,1,2) - u(1,2,2) <= -0
MCLin3(1,2,2):  28 y(2,1,2) + v(1,2,2) - u(1,2,2) <= 28
MCLin4(1,2,2):  28 y(2,1,2) - u(1,2,2) >= -0
MCLin5(1,2,2):  -60 y(2,1,2) + v(1,2,2) - u(1,2,2) >= -60
MCLin6(2,1,2):  u(2,1,2) >= -0
MCLin7(2,1,2):  -35 y(1,2,2) - u(2,1,2) <= -0
MCLin8(2,1,2):  53 y(1,2,2) + v(2,1,2) - u(2,1,2) <= 53
MCLin9(2,1,2):  53 y(1,2,2) - u(2,1,2) >= -0
MCLin10(2,1,2):  -35 y(1,2,2) + v(2,1,2) - u(2,1,2) >= -35
MCLinV(1,2,3):  x(1,3) - v(1,2,3) - x(2,3) = 10
MCLinV(2,1,3):  - x(1,3) - v(2,1,3) + x(2,3) = 9
MCLin1(1,2,3):  u(1,2,3) >= -0
MCLin2(1,2,3):  -53 y(2,1,3) - u(1,2,3) <= -0
MCLin3(1,2,3):  35 y(2,1,3) + v(1,2,3) - u(1,2,3) <= 35
MCLin4(1,2,3):  35 y(2,1,3) - u(1,2,3) >= -0
MCLin5(1,2,3):  -53 y(2,1,3) + v(1,2,3) - u(1,2,3) >= -53
MCLin6(2,1,3):  u(2,1,3) >= -0
MCLin7(2,1,3):  -54 y(1,2,3) - u(2,1,3) <= -0
MCLin8(2,1,3):  34 y(1,2,3) + v(2,1,3) - u(2,1,3) <= 34
MCLin9(2,1,3):  34 y(1,2,3) - u(2,1,3) >= -0
MCLin10(2,1,3):  -54 y(1,2,3) + v(2,1,3) - u(2,1,3) >= -54
makespan(0):  C - x(0,2) >= 4
makespan(1):  C - x(1,1) >= 3
makespan(2):  C - x(2,0) >= 2
cut_clique_0(012,0):  0.20000 x(0,0) + 0.03636 x(1,0) >= 1
cut_clique_0(012,1):  0.10000 x(0,1) + 0.33333 x(2,1) >= 1
cut_clique_0(012,2):  0.00541 x(0,2) + 0.04324 x(2,2) >= 1
cut_clique_0(012,3):  0.01036 x(0,3) + 0.01554 x(1,3) + 0.03886 x(2,3) >= 1
cut_clique_1(012,3):  0.01708 x(0,3) + 0.01438 x(1,3) + 0.02846 x(2,3) >= 1
cut_clique_0:  0.08096 x(0,0) + 0.01036 x(0,3) + 0.01554 x(1,3) + 0.01457 x(2,3) >= 1
cut_clique_1:  0.05763 x(0,0) + 0.09605 x(2,1) + 0.00738 x(0,3) + 0.01107 x(1,3) + 0.01037 x(2,3) >= 1
cut_clique_2:  0.06620 x(0,0) + 0.01059 x(0,3) + 0.01589 x(1,3) + 0.01765 x(2,3) >= 1
cut_clique_3:  0.04973 x(0,0) + 0.08289 x(2,1) + 0.00796 x(0,3) + 0.01194 x(1,3) + 0.01326 x(2,3) >= 1
Bounds
 0 <= C <= 67
 3 <= x(0,0) <= 49
 0 <= y(0,1,0) <= 1
 0 <= y(1,0,0) <= 1
 -50 <= v(0,1,0) <= 44
 -57 <= v(1,0,0) <= 37
 -670 <= u(0,1,0)
 -670 <= u(1,0,0)
 0 <= y(0,2,0) <= 1
 0 <= y(2,0,0) <= 1
 -64 <= v(0,2,0) <= 22
 -32 <= v(2,0,0) <= 54
 -670 <= u(0,2,0)
 -670 <= u(2,0,0)
 0 <= x(1,0) <= 48
 0 <= y(1,2,0) <= 1
 0 <= y(2,1,0) <= 1
 -67 <= v(1,2,0) <= 21
 -28 <= v(2,1,0) <= 60
 -670 <= u(1,2,0)
 -670 <= u(2,1,0)
 25 <= x(2,0) <= 65
 0 <= x(0,1) <= 46
 0 <= y(0,1,1) <= 1
 0 <= y(1,0,1) <= 1
 -67 <= v(0,1,1) <= 27
 -33 <= v(1,0,1) <= 61
 -670 <= u(0,1,1)
 -670 <= u(1,0,1)
 0 <= y(0,2,1) <= 1
 0 <= y(2,0,1) <= 1
 -50 <= v(0,2,1) <= 36
 -49 <= v(2,0,1) <= 37
 -670 <= u(0,2,1)
 -670 <= u(2,0,1)
 16 <= x(1,1) <= 64
 0 <= y(1,2,1) <= 1
 0 <= y(2,1,1) <= 1
 -34 <= v(1,2,1) <= 54
 -67 <= v(2,1,1) <= 21
 -670 <= u(1,2,1)
 -670 <= u(2,1,1)
 0 <= x(2,1) <= 40
 17 <= x(0,2) <= 63
 0 <= y(0,1,2) <= 1
 0 <= y(1,0,2) <= 1
 -38 <= v(0,1,2) <= 56
 -62 <= v(1,0,2) <= 32
 -670 <= u(0,1,2)
 -670 <= u(1,0,2)
 0 <= y(0,2,2) <= 1
 0 <= y(2,0,2) <= 1
 -48 <= v(0,2,2) <= 38
 -47 <= v(2,0,2) <= 39
 -670 <= u(0,2,2)
 -670 <= u(2,0,2)
 5 <= x(1,2) <= 53
 0 <= y(1,2,2) <= 1
 0 <= y(2,1,2) <= 1
 -60 <= v(1,2,2) <= 28
 -35 <= v(2,1,2) <= 53
 -670 <= u(1,2,2)
 -670 <= u(2,1,2)
 20 <= x(2,2) <= 60
 11 <= x(0,3) <= 57
 0 <= y(0,1,3) <= 1
 0 <= y(1,0,3) <= 1
 -53 <= v(0,1,3) <= 41
 -56 <= v(1,0,3) <= 38
 -670 <= u(0,1,3)
 -670 <= u(1,0,3)
 0 <= y(0,2,3) <= 1
 0 <= y(2,0,3) <= 1
 -49 <= v(0,2,3) <= 37
 -53 <= v(2,0,3) <= 33
 -670 <= u(0,2,3)
 -670 <= u(2,0,3)
 7 <= x(1,3) <= 55
 0 <= y(1,2,3) <= 1
 0 <= y(2,1,3) <= 1
 -53 <= v(1,2,3) <= 35
 -54 <= v(2,1,3) <= 34
 -670 <= u(1,2,3)
 -670 <= u(2,1,3)
 10 <= x(2,3) <= 50
Integers
C x(0,0) y(0,1,0) y(1,0,0) v(0,1,0) v(1,0,0) u(0,1,0) u(1,0,0) y(0,2,0) y(2,0,0) 
v(0,2,0) v(2,0,0) u(0,2,0) u(2,0,0) x(1,0) y(1,2,0) y(2,1,0) v(1,2,0) v(2,1,0) u(1,2,0) 
u(2,1,0) x(2,0) x(0,1) y(0,1,1) y(1,0,1) v(0,1,1) v(1,0,1) u(0,1,1) u(1,0,1) y(0,2,1) 
y(2,0,1) v(0,2,1) v(2,0,1) u(0,2,1) u(2,0,1) x(1,1) y(1,2,1) y(2,1,1) v(1,2,1) v(2,1,1) 
u(1,2,1) u(2,1,1) x(2,1) x(0,2) y(0,1,2) y(1,0,2) v(0,1,2) v(1,0,2) u(0,1,2) u(1,0,2) 
y(0,2,2) y(2,0,2) v(0,2,2) v(2,0,2) u(0,2,2) u(2,0,2) x(1,2) y(1,2,2) y(2,1,2) v(1,2,2) 
v(2,1,2) u(1,2,2) u(2,1,2) x(2,2) x(0,3) y(0,1,3) y(1,0,3) v(0,1,3) v(1,0,3) u(0,1,3) 
u(1,0,3) y(0,2,3) y(2,0,3) v(0,2,3) v(2,0,3) u(0,2,3) u(2,0,3) x(1,3) y(1,2,3) y(2,1,3) 
v(1,2,3) v(2,1,3) u(1,2,3) u(2,1,3) x(2,3) 
End
